100
128
8
19
42
1
15
19
6
10
9
37
13
24
27
17
1
5
11
22
13
10
58
32
3
24
25
42
27
2
35
41
7
39
48
2
50
59
42
48
49
46
1
44
49
14
44
48
3
44
7
53
61
16
40
52
3
9
49
62
6
53
3
46
9
2
3
6
56
6
2
1
28
21
2
3
49
18
53
61
10
5
37
62
10
6
6
9
36
62
42
42
4
2
44
34
47
60
13
3
3
5